n_nodes = 567;
M = 6701;
n_domains = 18;
domain_link_weights = [|0,6701,6701,358,6701,6701,6701,6701,6701,6701,6701,6701,6701,6701,6701,6701,6701,6701|6701,0,6701,6701,6701,479,344,264,6701,6701,6701,6701,6701,6701,6701,6701,6701,6701|6701,6701,0,6701,6701,6701,6701,6701,6701,972,6701,6701,6701,6701,1788,6701,6701,6701|6701,6701,6701,0,6701,6701,6701,6701,6701,6701,6701,6701,6701,6701,6701,6701,6701,6701|6701,6701,6701,6701,0,364,358,173,6701,6701,6701,6701,6701,6701,6701,6701,6701,6223|6701,6701,6701,6701,6701,0,6701,6701,6701,6701,6701,6701,6701,6701,6701,6701,6701,6701|6701,6701,6701,6701,6701,6701,0,6701,5585,6701,6701,6701,6701,6701,6701,6701,6701,6701|6701,6701,6701,6701,6701,6701,6701,0,6701,6701,6701,6701,6701,6701,6701,6701,6701,6701|6701,6701,6701,6701,6701,6701,6701,6701,0,6701,6701,6701,6701,6701,6701,1148,556,350|6701,6701,6701,6701,6701,6701,6701,6701,6701,0,6701,6701,6701,2562,6701,943,6701,852|6701,6701,6701,6701,6701,6701,6701,6701,6701,6701,0,1141,6701,6701,6701,2795,6701,6701|6701,6701,6701,6701,6701,6701,6701,6701,6701,6701,6701,0,492,6701,6701,2963,6701,3855|6701,6701,6701,6701,6701,6701,6701,6701,6701,6701,6701,6701,0,575,1995,2807,6701,6701|6701,6701,6701,6701,6701,6701,6701,6701,6701,6701,6701,6701,6701,0,1425,6701,6701,6701|6701,6701,6701,6701,6701,6701,6701,6701,6701,6701,6701,6701,6701,6701,0,1291,6701,1872|6701,6701,6701,6701,6701,6701,6701,6701,6701,6701,6701,6701,6701,6701,6701,0,704,916|6701,6701,6701,6701,6701,6701,6701,6701,6701,6701,6701,6701,6701,6701,6701,6701,0,6701|6701,6701,6701,6701,6701,6701,6701,6701,6701,6701,6701,6701,6701,6701,6701,6701,6701,0|];
num_node_links = 1129;
node_links = [|1,3|1,4|2,6|2,7|2,8|3,10|3,15|5,6|5,7|5,8|5,18|7,9|9,16|9,17|9,18|10,14|10,16|10,18|11,12|11,16|12,13|12,16|12,18|13,14|13,15|13,16|14,15|15,16|15,18|16,17|16,18|1,19|19,1|1,43|43,1|1,68|68,1|1,84|84,1|1,121|121,1|1,124|124,1|1,142|142,1|1,178|178,1|1,207|207,1|1,210|210,1|1,242|242,1|1,245|245,1|1,254|254,1|1,258|258,1|1,274|274,1|1,283|283,1|1,286|286,1|1,318|318,1|1,326|326,1|1,332|332,1|1,375|375,1|1,403|403,1|1,417|417,1|1,424|424,1|1,425|425,1|1,446|446,1|1,494|494,1|1,510|510,1|1,522|522,1|1,538|538,1|1,544|544,1|2,20|20,2|2,40|40,2|2,42|42,2|2,53|53,2|2,61|61,2|2,91|91,2|2,122|122,2|2,136|136,2|2,138|138,2|2,140|140,2|2,143|143,2|2,171|171,2|2,214|214,2|2,215|215,2|2,227|227,2|2,230|230,2|2,293|293,2|2,303|303,2|2,311|311,2|2,333|333,2|2,363|363,2|2,402|402,2|2,421|421,2|2,444|444,2|2,453|453,2|2,481|481,2|2,489|489,2|2,526|526,2|2,549|549,2|2,554|554,2|2,561|561,2|3,21|21,3|3,51|51,3|3,52|52,3|3,89|89,3|3,100|100,3|3,151|151,3|3,163|163,3|3,183|183,3|3,226|226,3|3,239|239,3|3,241|241,3|3,262|262,3|3,288|288,3|3,290|290,3|3,292|292,3|3,314|314,3|3,316|316,3|3,322|322,3|3,323|323,3|3,328|328,3|3,337|337,3|3,383|383,3|3,410|410,3|3,420|420,3|3,428|428,3|3,454|454,3|3,463|463,3|3,474|474,3|3,500|500,3|3,539|539,3|3,542|542,3|4,22|22,4|4,75|75,4|4,83|83,4|4,127|127,4|4,135|135,4|4,150|150,4|4,168|168,4|4,177|177,4|4,195|195,4|4,198|198,4|4,212|212,4|4,222|222,4|4,235|235,4|4,257|257,4|4,269|269,4|4,291|291,4|4,296|296,4|4,305|305,4|4,313|313,4|4,330|330,4|4,344|344,4|4,368|368,4|4,401|401,4|4,413|413,4|4,423|423,4|4,445|445,4|4,464|464,4|4,501|501,4|4,515|515,4|4,550|550,4|4,562|562,4|5,23|23,5|5,47|47,5|5,49|49,5|5,57|57,5|5,60|60,5|5,64|64,5|5,96|96,5|5,120|120,5|5,126|126,5|5,147|147,5|5,173|173,5|5,223|223,5|5,238|238,5|5,247|247,5|5,250|250,5|5,251|251,5|5,287|287,5|5,295|295,5|5,306|306,5|5,340|340,5|5,353|353,5|5,365|365,5|5,378|378,5|5,448|448,5|5,449|449,5|5,475|475,5|5,479|479,5|5,483|483,5|5,531|531,5|5,540|540,5|6,24|24,6|6,54|54,6|6,74|74,6|6,117|117,6|6,141|141,6|6,149|149,6|6,167|167,6|6,229|229,6|6,255|255,6|6,256|256,6|6,260|260,6|6,282|282,6|6,294|294,6|6,321|321,6|6,334|334,6|6,351|351,6|6,374|374,6|6,415|415,6|6,437|437,6|6,458|458,6|6,492|492,6|6,502|502,6|6,530|530,6|6,547|547,6|6,548|548,6|6,552|552,6|6,559|559,6|7,25|25,7|7,38|38,7|7,55|55,7|7,85|85,7|7,92|92,7|7,95|95,7|7,104|104,7|7,107|107,7|7,125|125,7|7,133|133,7|7,145|145,7|7,154|154,7|7,156|156,7|7,158|158,7|7,200|200,7|7,277|277,7|7,278|278,7|7,297|297,7|7,327|327,7|7,342|342,7|7,373|373,7|7,380|380,7|7,397|397,7|7,405|405,7|7,426|426,7|7,442|442,7|7,465|465,7|7,472|472,7|7,499|499,7|7,536|536,7|7,566|566,7|8,26|26,8|8,69|69,8|8,105|105,8|8,106|106,8|8,152|152,8|8,172|172,8|8,217|217,8|8,220|220,8|8,253|253,8|8,261|261,8|8,273|273,8|8,310|310,8|8,319|319,8|8,356|356,8|8,360|360,8|8,384|384,8|8,408|408,8|8,433|433,8|8,434|434,8|8,441|441,8|8,451|451,8|8,460|460,8|8,482|482,8|8,484|484,8|8,487|487,8|8,497|497,8|8,507|507,8|8,523|523,8|8,529|529,8|8,532|532,8|8,551|551,8|9,27|27,9|9,41|41,9|9,50|50,9|9,58|58,9|9,81|81,9|9,165|165,9|9,180|180,9|9,181|181,9|9,188|188,9|9,202|202,9|9,205|205,9|9,243|243,9|9,252|252,9|9,268|268,9|9,284|284,9|9,320|320,9|9,362|362,9|9,367|367,9|9,369|369,9|9,381|381,9|9,422|422,9|9,431|431,9|9,436|436,9|9,443|443,9|9,485|485,9|9,491|491,9|9,511|511,9|9,524|524,9|9,545|545,9|9,555|555,9|9,556|556,9|10,28|28,10|10,37|37,10|10,73|73,10|10,76|76,10|10,90|90,10|10,98|98,10|10,131|131,10|10,169|169,10|10,216|216,10|10,232|232,10|10,279|279,10|10,281|281,10|10,299|299,10|10,315|315,10|10,336|336,10|10,338|338,10|10,341|341,10|10,345|345,10|10,354|354,10|10,376|376,10|10,399|399,10|10,404|404,10|10,440|440,10|10,456|456,10|10,467|467,10|10,477|477,10|10,480|480,10|10,504|504,10|10,514|514,10|10,534|534,10|10,537|537,10|11,29|29,11|11,56|56,11|11,63|63,11|11,72|72,11|11,87|87,11|11,99|99,11|11,101|101,11|11,110|110,11|11,114|114,11|11,123|123,11|11,164|164,11|11,170|170,11|11,209|209,11|11,329|329,11|11,331|331,11|11,355|355,11|11,359|359,11|11,361|361,11|11,382|382,11|11,394|394,11|11,478|478,11|11,493|493,11|11,505|505,11|11,521|521,11|11,528|528,11|11,535|535,11|11,541|541,11|11,546|546,11|11,565|565,11|12,30|30,12|12,39|39,12|12,46|46,12|12,109|109,12|12,112|112,12|12,113|113,12|12,137|137,12|12,144|144,12|12,174|174,12|12,187|187,12|12,224|224,12|12,225|225,12|12,246|246,12|12,263|263,12|12,270|270,12|12,275|275,12|12,308|308,12|12,317|317,12|12,343|343,12|12,364|364,12|12,366|366,12|12,377|377,12|12,409|409,12|12,414|414,12|12,416|416,12|12,432|432,12|12,438|438,12|12,461|461,12|12,462|462,12|12,557|557,12|12,560|560,12|13,31|31,13|13,67|67,13|13,80|80,13|13,88|88,13|13,97|97,13|13,108|108,13|13,115|115,13|13,176|176,13|13,185|185,13|13,186|186,13|13,194|194,13|13,199|199,13|13,206|206,13|13,219|219,13|13,221|221,13|13,237|237,13|13,240|240,13|13,249|249,13|13,264|264,13|13,289|289,13|13,335|335,13|13,372|372,13|13,396|396,13|13,406|406,13|13,459|459,13|13,473|473,13|13,486|486,13|13,503|503,13|13,516|516,13|13,519|519,13|14,32|32,14|14,94|94,14|14,128|128,14|14,129|129,14|14,175|175,14|14,179|179,14|14,182|182,14|14,190|190,14|14,203|203,14|14,228|228,14|14,244|244,14|14,259|259,14|14,267|267,14|14,280|280,14|14,298|298,14|14,307|307,14|14,370|370,14|14,392|392,14|14,398|398,14|14,400|400,14|14,412|412,14|14,452|452,14|14,469|469,14|14,470|470,14|14,496|496,14|14,506|506,14|14,513|513,14|14,518|518,14|14,543|543,14|14,553|553,14|14,564|564,14|15,33|33,15|15,71|71,15|15,77|77,15|15,119|119,15|15,146|146,15|15,157|157,15|15,161|161,15|15,184|184,15|15,189|189,15|15,193|193,15|15,197|197,15|15,218|218,15|15,234|234,15|15,266|266,15|15,300|300,15|15,301|301,15|15,304|304,15|15,309|309,15|15,324|324,15|15,339|339,15|15,352|352,15|15,391|391,15|15,407|407,15|15,430|430,15|15,455|455,15|15,471|471,15|15,498|498,15|15,508|508,15|15,517|517,15|15,525|525,15|15,527|527,15|16,34|34,16|16,59|59,16|16,65|65,16|16,66|66,16|16,70|70,16|16,79|79,16|16,86|86,16|16,93|93,16|16,103|103,16|16,111|111,16|16,155|155,16|16,159|159,16|16,162|162,16|16,196|196,16|16,201|201,16|16,233|233,16|16,265|265,16|16,272|272,16|16,312|312,16|16,348|348,16|16,349|349,16|16,379|379,16|16,393|393,16|16,411|411,16|16,418|418,16|16,419|419,16|16,427|427,16|16,476|476,16|16,490|490,16|16,533|533,16|17,35|35,17|17,44|44,17|17,45|45,17|17,78|78,17|17,82|82,17|17,118|118,17|17,130|130,17|17,132|132,17|17,153|153,17|17,160|160,17|17,213|213,17|17,231|231,17|17,236|236,17|17,248|248,17|17,271|271,17|17,302|302,17|17,350|350,17|17,357|357,17|17,358|358,17|17,387|387,17|17,389|389,17|17,390|390,17|17,395|395,17|17,435|435,17|17,439|439,17|17,457|457,17|17,495|495,17|17,509|509,17|17,558|558,17|17,563|563,17|17,567|567,17|18,36|36,18|18,48|48,18|18,62|62,18|18,102|102,18|18,116|116,18|18,134|134,18|18,139|139,18|18,148|148,18|18,166|166,18|18,191|191,18|18,192|192,18|18,204|204,18|18,208|208,18|18,211|211,18|18,276|276,18|18,285|285,18|18,325|325,18|18,346|346,18|18,347|347,18|18,371|371,18|18,385|385,18|18,386|386,18|18,388|388,18|18,429|429,18|18,447|447,18|18,450|450,18|18,466|466,18|18,468|468,18|18,488|488,18|18,512|512,18|18,520|520,18|];
nodes = [|1,9,0,0,0,0,1,1|2,9,0,0,0,0,1,2|3,9,0,0,0,0,1,3|4,9,0,0,0,0,1,4|5,9,0,0,0,0,1,5|6,9,0,0,0,0,1,6|7,9,0,0,0,0,1,7|8,9,0,0,0,0,1,8|9,9,0,0,0,0,1,9|10,9,0,0,0,0,1,10|11,9,0,0,0,0,1,11|12,9,0,0,0,0,1,12|13,9,0,0,0,0,1,13|14,9,0,0,0,0,1,14|15,9,0,0,0,0,1,15|16,9,0,0,0,0,1,16|17,9,0,0,0,0,1,17|18,9,0,0,0,0,1,18|19,10,0,0,0,0,1,1|20,10,0,0,0,0,1,2|21,10,0,0,0,0,1,3|22,10,0,0,0,0,1,4|23,10,0,0,0,0,1,5|24,10,0,0,0,0,1,6|25,10,0,0,0,0,1,7|26,10,0,0,0,0,1,8|27,10,0,0,0,0,1,9|28,10,0,0,0,0,1,10|29,10,0,0,0,0,1,11|30,10,0,0,0,0,1,12|31,10,0,0,0,0,1,13|32,10,0,0,0,0,1,14|33,10,0,0,0,0,1,15|34,10,0,0,0,0,1,16|35,10,0,0,0,0,1,17|36,10,0,0,0,0,1,18|37,2,0,0,0,0,1,10|38,3,0,0,0,0,1,7|39,1,0,0,0,0,1,12|40,1,0,0,0,0,1,2|41,1,0,0,0,0,1,9|42,2,0,0,0,0,1,2|43,2,0,0,0,0,1,1|44,1,0,0,0,0,1,17|45,3,0,0,0,0,1,17|46,3,0,0,0,0,1,12|47,1,0,0,0,0,1,5|48,1,0,0,0,0,1,18|49,5,0,0,0,0,1,5|50,4,0,0,0,0,1,9|51,2,0,0,0,0,1,3|52,3,0,0,0,0,1,3|53,5,0,0,0,0,1,2|54,5,0,0,0,0,1,6|55,2,0,0,0,0,1,7|56,2,0,0,0,0,1,11|57,2,0,0,0,0,1,5|58,5,0,0,0,0,1,9|59,5,0,0,0,0,1,16|60,3,0,0,0,0,1,5|61,1,0,0,0,0,1,2|62,1,0,0,0,0,1,18|63,2,0,0,0,0,1,11|64,5,0,0,0,0,1,5|65,4,0,0,0,0,1,16|66,5,0,0,0,0,1,16|67,5,0,0,0,0,1,13|68,4,0,0,0,0,1,1|69,1,0,0,0,0,1,8|70,2,0,0,0,0,1,16|71,2,0,0,0,0,1,15|72,2,0,0,0,0,1,11|73,1,0,0,0,0,1,10|74,1,0,0,0,0,1,6|75,4,0,0,0,0,1,4|76,1,0,0,0,0,1,10|77,1,0,0,0,0,1,15|78,4,0,0,0,0,1,17|79,5,0,0,0,0,1,16|80,2,0,0,0,0,1,13|81,5,0,0,0,0,1,9|82,1,0,0,0,0,1,17|83,3,0,0,0,0,1,4|84,3,0,0,0,0,1,1|85,2,0,0,0,0,1,7|86,1,0,0,0,0,1,16|87,4,0,0,0,0,1,11|88,5,0,0,0,0,1,13|89,5,0,0,0,0,1,3|90,4,0,0,0,0,1,10|91,3,0,0,0,0,1,2|92,5,0,0,0,0,1,7|93,3,0,0,0,0,1,16|94,2,0,0,0,0,1,14|95,2,0,0,0,0,1,7|96,3,0,0,0,0,1,5|97,2,0,0,0,0,1,13|98,2,0,0,0,0,1,10|99,5,0,0,0,0,1,11|100,1,0,0,0,0,1,3|101,4,0,0,0,0,1,11|102,1,0,0,0,0,1,18|103,5,0,0,0,0,1,16|104,2,0,0,0,0,1,7|105,1,0,0,0,0,1,8|106,3,0,0,0,0,1,8|107,3,0,0,0,0,1,7|108,5,0,0,0,0,1,13|109,4,0,0,0,0,1,12|110,3,0,0,0,0,1,11|111,5,0,0,0,0,1,16|112,1,0,0,0,0,1,12|113,3,0,0,0,0,1,12|114,4,0,0,0,0,1,11|115,1,0,0,0,0,1,13|116,3,0,0,0,0,1,18|117,2,0,0,0,0,1,6|118,1,0,0,0,0,1,17|119,2,0,0,0,0,1,15|120,3,0,0,0,0,1,5|121,1,0,0,0,0,1,1|122,5,0,0,0,0,1,2|123,4,0,0,0,0,1,11|124,4,0,0,0,0,1,1|125,4,0,0,0,0,1,7|126,5,0,0,0,0,1,5|127,4,0,0,0,0,1,4|128,3,0,0,0,0,1,14|129,1,0,0,0,0,1,14|130,1,0,0,0,0,1,17|131,2,0,0,0,0,1,10|132,2,0,0,0,0,1,17|133,2,0,0,0,0,1,7|134,1,0,0,0,0,1,18|135,4,0,0,0,0,1,4|136,1,0,0,0,0,1,2|137,1,0,0,0,0,1,12|138,3,0,0,0,0,1,2|139,3,0,0,0,0,1,18|140,4,0,0,0,0,1,2|141,1,0,0,0,0,1,6|142,5,0,0,0,0,1,1|143,1,0,0,0,0,1,2|144,1,0,0,0,0,1,12|145,3,0,0,0,0,1,7|146,2,0,0,0,0,1,15|147,1,0,0,0,0,1,5|148,4,0,0,0,0,1,18|149,2,0,0,0,0,1,6|150,4,0,0,0,0,1,4|151,1,0,0,0,0,1,3|152,5,0,0,0,0,1,8|153,4,0,0,0,0,1,17|154,1,0,0,0,0,1,7|155,3,0,0,0,0,1,16|156,2,0,0,0,0,1,7|157,2,0,0,0,0,1,15|158,5,0,0,0,0,1,7|159,1,0,0,0,0,1,16|160,2,0,0,0,0,1,17|161,1,0,0,0,0,1,15|162,5,0,0,0,0,1,16|163,3,0,0,0,0,1,3|164,1,0,0,0,0,1,11|165,3,0,0,0,0,1,9|166,4,0,0,0,0,1,18|167,2,0,0,0,0,1,6|168,5,0,0,0,0,1,4|169,5,0,0,0,0,1,10|170,3,0,0,0,0,1,11|171,4,0,0,0,0,1,2|172,2,0,0,0,0,1,8|173,3,0,0,0,0,1,5|174,4,0,0,0,0,1,12|175,2,0,0,0,0,1,14|176,5,0,0,0,0,1,13|177,5,0,0,0,0,1,4|178,4,0,0,0,0,1,1|179,5,0,0,0,0,1,14|180,4,0,0,0,0,1,9|181,1,0,0,0,0,1,9|182,1,0,0,0,0,1,14|183,2,0,0,0,0,1,3|184,2,0,0,0,0,1,15|185,3,0,0,0,0,1,13|186,2,0,0,0,0,1,13|187,3,0,0,0,0,1,12|188,1,0,0,0,0,1,9|189,5,0,0,0,0,1,15|190,1,0,0,0,0,1,14|191,3,0,0,0,0,1,18|192,3,0,0,0,0,1,18|193,1,0,0,0,0,1,15|194,5,0,0,0,0,1,13|195,1,0,0,0,0,1,4|196,2,0,0,0,0,1,16|197,3,0,0,0,0,1,15|198,2,0,0,0,0,1,4|199,2,0,0,0,0,1,13|200,5,0,0,0,0,1,7|201,3,0,0,0,0,1,16|202,3,0,0,0,0,1,9|203,3,0,0,0,0,1,14|204,2,0,0,0,0,1,18|205,2,0,0,0,0,1,9|206,1,0,0,0,0,1,13|207,2,0,0,0,0,1,1|208,2,0,0,0,0,1,18|209,2,0,0,0,0,1,11|210,4,0,0,0,0,1,1|211,2,0,0,0,0,1,18|212,2,0,0,0,0,1,4|213,2,0,0,0,0,1,17|214,5,0,0,0,0,1,2|215,2,0,0,0,0,1,2|216,5,0,0,0,0,1,10|217,4,0,0,0,0,1,8|218,3,0,0,0,0,1,15|219,2,0,0,0,0,1,13|220,1,0,0,0,0,1,8|221,3,0,0,0,0,1,13|222,5,0,0,0,0,1,4|223,2,0,0,0,0,1,5|224,4,0,0,0,0,1,12|225,2,0,0,0,0,1,12|226,1,0,0,0,0,1,3|227,5,0,0,0,0,1,2|228,2,0,0,0,0,1,14|229,1,0,0,0,0,1,6|230,2,0,0,0,0,1,2|231,3,0,0,0,0,1,17|232,1,0,0,0,0,1,10|233,3,0,0,0,0,1,16|234,5,0,0,0,0,1,15|235,3,0,0,0,0,1,4|236,5,0,0,0,0,1,17|237,1,0,0,0,0,1,13|238,3,0,0,0,0,1,5|239,5,0,0,0,0,1,3|240,3,0,0,0,0,1,13|241,5,0,0,0,0,1,3|242,2,0,0,0,0,1,1|243,5,0,0,0,0,1,9|244,2,0,0,0,0,1,14|245,5,0,0,0,0,1,1|246,2,0,0,0,0,1,12|247,4,0,0,0,0,1,5|248,4,0,0,0,0,1,17|249,5,0,0,0,0,1,13|250,1,0,0,0,0,1,5|251,1,0,0,0,0,1,5|252,5,0,0,0,0,1,9|253,1,0,0,0,0,1,8|254,5,0,0,0,0,1,1|255,3,0,0,0,0,1,6|256,4,0,0,0,0,1,6|257,2,0,0,0,0,1,4|258,2,0,0,0,0,1,1|259,2,0,0,0,0,1,14|260,5,0,0,0,0,1,6|261,2,0,0,0,0,1,8|262,2,0,0,0,0,1,3|263,4,0,0,0,0,1,12|264,2,0,0,0,0,1,13|265,3,0,0,0,0,1,16|266,2,0,0,0,0,1,15|267,1,0,0,0,0,1,14|268,2,0,0,0,0,1,9|269,1,0,0,0,0,1,4|270,5,0,0,0,0,1,12|271,1,0,0,0,0,1,17|272,5,0,0,0,0,1,16|273,1,0,0,0,0,1,8|274,4,0,0,0,0,1,1|275,3,0,0,0,0,1,12|276,2,0,0,0,0,1,18|277,2,0,0,0,0,1,7|278,5,0,0,0,0,1,7|279,1,0,0,0,0,1,10|280,2,0,0,0,0,1,14|281,1,0,0,0,0,1,10|282,2,0,0,0,0,1,6|283,5,0,0,0,0,1,1|284,5,0,0,0,0,1,9|285,5,0,0,0,0,1,18|286,2,0,0,0,0,1,1|287,3,0,0,0,0,1,5|288,4,0,0,0,0,1,3|289,1,0,0,0,0,1,13|290,3,0,0,0,0,1,3|291,5,0,0,0,0,1,4|292,1,0,0,0,0,1,3|293,1,0,0,0,0,1,2|294,5,0,0,0,0,1,6|295,2,0,0,0,0,1,5|296,2,0,0,0,0,1,4|297,3,0,0,0,0,1,7|298,2,0,0,0,0,1,14|299,1,0,0,0,0,1,10|300,1,0,0,0,0,1,15|301,4,0,0,0,0,1,15|302,1,0,0,0,0,1,17|303,5,0,0,0,0,1,2|304,1,0,0,0,0,1,15|305,4,0,0,0,0,1,4|306,1,0,0,0,0,1,5|307,4,0,0,0,0,1,14|308,3,0,0,0,0,1,12|309,1,0,0,0,0,1,15|310,5,0,0,0,0,1,8|311,4,0,0,0,0,1,2|312,3,0,0,0,0,1,16|313,3,0,0,0,0,1,4|314,5,0,0,0,0,1,3|315,3,0,0,0,0,1,10|316,1,0,0,0,0,1,3|317,4,0,0,0,0,1,12|318,5,0,0,0,0,1,1|319,4,0,0,0,0,1,8|320,1,0,0,0,0,1,9|321,1,0,0,0,0,1,6|322,2,0,0,0,0,1,3|323,1,0,0,0,0,1,3|324,2,0,0,0,0,1,15|325,4,0,0,0,0,1,18|326,1,0,0,0,0,1,1|327,3,0,0,0,0,1,7|328,4,0,0,0,0,1,3|329,5,0,0,0,0,1,11|330,2,0,0,0,0,1,4|331,2,0,0,0,0,1,11|332,3,0,0,0,0,1,1|333,1,0,0,0,0,1,2|334,5,0,0,0,0,1,6|335,4,0,0,0,0,1,13|336,5,0,0,0,0,1,10|337,3,0,0,0,0,1,3|338,2,0,0,0,0,1,10|339,3,0,0,0,0,1,15|340,2,0,0,0,0,1,5|341,4,0,0,0,0,1,10|342,4,0,0,0,0,1,7|343,2,0,0,0,0,1,12|344,4,0,0,0,0,1,4|345,3,0,0,0,0,1,10|346,5,0,0,0,0,1,18|347,4,0,0,0,0,1,18|348,3,0,0,0,0,1,16|349,5,0,0,0,0,1,16|350,3,0,0,0,0,1,17|351,3,0,0,0,0,1,6|352,2,0,0,0,0,1,15|353,4,0,0,0,0,1,5|354,2,0,0,0,0,1,10|355,2,0,0,0,0,1,11|356,4,0,0,0,0,1,8|357,1,0,0,0,0,1,17|358,4,0,0,0,0,1,17|359,5,0,0,0,0,1,11|360,1,0,0,0,0,1,8|361,5,0,0,0,0,1,11|362,3,0,0,0,0,1,9|363,5,0,0,0,0,1,2|364,3,0,0,0,0,1,12|365,2,0,0,0,0,1,5|366,2,0,0,0,0,1,12|367,4,0,0,0,0,1,9|368,5,0,0,0,0,1,4|369,1,0,0,0,0,1,9|370,5,0,0,0,0,1,14|371,3,0,0,0,0,1,18|372,1,0,0,0,0,1,13|373,3,0,0,0,0,1,7|374,1,0,0,0,0,1,6|375,1,0,0,0,0,1,1|376,2,0,0,0,0,1,10|377,5,0,0,0,0,1,12|378,4,0,0,0,0,1,5|379,4,0,0,0,0,1,16|380,2,0,0,0,0,1,7|381,5,0,0,0,0,1,9|382,1,0,0,0,0,1,11|383,4,0,0,0,0,1,3|384,2,0,0,0,0,1,8|385,1,0,0,0,0,1,18|386,1,0,0,0,0,1,18|387,5,0,0,0,0,1,17|388,2,0,0,0,0,1,18|389,5,0,0,0,0,1,17|390,1,0,0,0,0,1,17|391,1,0,0,0,0,1,15|392,3,0,0,0,0,1,14|393,3,0,0,0,0,1,16|394,4,0,0,0,0,1,11|395,5,0,0,0,0,1,17|396,1,0,0,0,0,1,13|397,4,0,0,0,0,1,7|398,4,0,0,0,0,1,14|399,2,0,0,0,0,1,10|400,1,0,0,0,0,1,14|401,4,0,0,0,0,1,4|402,1,0,0,0,0,1,2|403,1,0,0,0,0,1,1|404,3,0,0,0,0,1,10|405,2,0,0,0,0,1,7|406,5,0,0,0,0,1,13|407,4,0,0,0,0,1,15|408,4,0,0,0,0,1,8|409,3,0,0,0,0,1,12|410,4,0,0,0,0,1,3|411,2,0,0,0,0,1,16|412,5,0,0,0,0,1,14|413,5,0,0,0,0,1,4|414,5,0,0,0,0,1,12|415,2,0,0,0,0,1,6|416,2,0,0,0,0,1,12|417,4,0,0,0,0,1,1|418,1,0,0,0,0,1,16|419,4,0,0,0,0,1,16|420,5,0,0,0,0,1,3|421,3,0,0,0,0,1,2|422,1,0,0,0,0,1,9|423,4,0,0,0,0,1,4|424,1,0,0,0,0,1,1|425,5,0,0,0,0,1,1|426,1,0,0,0,0,1,7|427,2,0,0,0,0,1,16|428,4,0,0,0,0,1,3|429,2,0,0,0,0,1,18|430,4,0,0,0,0,1,15|431,3,0,0,0,0,1,9|432,3,0,0,0,0,1,12|433,4,0,0,0,0,1,8|434,5,0,0,0,0,1,8|435,1,0,0,0,0,1,17|436,2,0,0,0,0,1,9|437,5,0,0,0,0,1,6|438,4,0,0,0,0,1,12|439,4,0,0,0,0,1,17|440,2,0,0,0,0,1,10|441,1,0,0,0,0,1,8|442,2,0,0,0,0,1,7|443,2,0,0,0,0,1,9|444,1,0,0,0,0,1,2|445,5,0,0,0,0,1,4|446,3,0,0,0,0,1,1|447,3,0,0,0,0,1,18|448,3,0,0,0,0,1,5|449,3,0,0,0,0,1,5|450,2,0,0,0,0,1,18|451,2,0,0,0,0,1,8|452,3,0,0,0,0,1,14|453,3,0,0,0,0,1,2|454,1,0,0,0,0,1,3|455,3,0,0,0,0,1,15|456,1,0,0,0,0,1,10|457,5,0,0,0,0,1,17|458,5,0,0,0,0,1,6|459,3,0,0,0,0,1,13|460,2,0,0,0,0,1,8|461,4,0,0,0,0,1,12|462,1,0,0,0,0,1,12|463,5,0,0,0,0,1,3|464,3,0,0,0,0,1,4|465,5,0,0,0,0,1,7|466,3,0,0,0,0,1,18|467,1,0,0,0,0,1,10|468,3,0,0,0,0,1,18|469,1,0,0,0,0,1,14|470,4,0,0,0,0,1,14|471,1,0,0,0,0,1,15|472,3,0,0,0,0,1,7|473,5,0,0,0,0,1,13|474,2,0,0,0,0,1,3|475,2,0,0,0,0,1,5|476,1,0,0,0,0,1,16|477,2,0,0,0,0,1,10|478,3,0,0,0,0,1,11|479,4,0,0,0,0,1,5|480,1,0,0,0,0,1,10|481,5,0,0,0,0,1,2|482,4,0,0,0,0,1,8|483,4,0,0,0,0,1,5|484,5,0,0,0,0,1,8|485,4,0,0,0,0,1,9|486,5,0,0,0,0,1,13|487,2,0,0,0,0,1,8|488,5,0,0,0,0,1,18|489,1,0,0,0,0,1,2|490,1,0,0,0,0,1,16|491,1,0,0,0,0,1,9|492,4,0,0,0,0,1,6|493,1,0,0,0,0,1,11|494,3,0,0,0,0,1,1|495,4,0,0,0,0,1,17|496,2,0,0,0,0,1,14|497,3,0,0,0,0,1,8|498,2,0,0,0,0,1,15|499,3,0,0,0,0,1,7|500,4,0,0,0,0,1,3|501,3,0,0,0,0,1,4|502,3,0,0,0,0,1,6|503,3,0,0,0,0,1,13|504,2,0,0,0,0,1,10|505,3,0,0,0,0,1,11|506,5,0,0,0,0,1,14|507,4,0,0,0,0,1,8|508,5,0,0,0,0,1,15|509,1,0,0,0,0,1,17|510,4,0,0,0,0,1,1|511,2,0,0,0,0,1,9|512,3,0,0,0,0,1,18|513,4,0,0,0,0,1,14|514,5,0,0,0,0,1,10|515,1,0,0,0,0,1,4|516,2,0,0,0,0,1,13|517,1,0,0,0,0,1,15|518,5,0,0,0,0,1,14|519,3,0,0,0,0,1,13|520,3,0,0,0,0,1,18|521,2,0,0,0,0,1,11|522,2,0,0,0,0,1,1|523,2,0,0,0,0,1,8|524,5,0,0,0,0,1,9|525,1,0,0,0,0,1,15|526,2,0,0,0,0,1,2|527,2,0,0,0,0,1,15|528,2,0,0,0,0,1,11|529,2,0,0,0,0,1,8|530,2,0,0,0,0,1,6|531,3,0,0,0,0,1,5|532,3,0,0,0,0,1,8|533,3,0,0,0,0,1,16|534,1,0,0,0,0,1,10|535,5,0,0,0,0,1,11|536,4,0,0,0,0,1,7|537,1,0,0,0,0,1,10|538,3,0,0,0,0,1,1|539,1,0,0,0,0,1,3|540,5,0,0,0,0,1,5|541,3,0,0,0,0,1,11|542,5,0,0,0,0,1,3|543,5,0,0,0,0,1,14|544,2,0,0,0,0,1,1|545,2,0,0,0,0,1,9|546,3,0,0,0,0,1,11|547,4,0,0,0,0,1,6|548,3,0,0,0,0,1,6|549,5,0,0,0,0,1,2|550,5,0,0,0,0,1,4|551,5,0,0,0,0,1,8|552,2,0,0,0,0,1,6|553,1,0,0,0,0,1,14|554,5,0,0,0,0,1,2|555,5,0,0,0,0,1,9|556,4,0,0,0,0,1,9|557,3,0,0,0,0,1,12|558,1,0,0,0,0,1,17|559,2,0,0,0,0,1,6|560,3,0,0,0,0,1,12|561,4,0,0,0,0,1,2|562,1,0,0,0,0,1,4|563,1,0,0,0,0,1,17|564,5,0,0,0,0,1,14|565,4,0,0,0,0,1,11|566,3,0,0,0,0,1,7|567,5,0,0,0,0,1,17|];
